42
20
2162

237 24.0 337 66.46
623 62.0 723 102.33
721 72.0 821 159.67
824 82.0 924 132.08
775 78.0 875 141.89
801 80.0 901 172.94
680 68.0 780 93.89
525 52.0 625 64.98
825 82.0 925 108.85
939 94.0 1039 107.54
407 41.0 507 72.98
370 37.0 470 52.78
458 46.0 558 61.13
739 74.0 839 109.76
929 93.0 1029 144.13
381 38.0 481 90.51
426 43.0 526 53.27
728 73.0 828 136.61
759 76.0 859 163.84
828 83.0 928 160.87

42
[950]

[[25, 40, 32, 15, 2, 18, 10, 44, 34, 2, 39, 28, 11, 14, 8, 16, 12, 0, 19, 19]]

[[931, 853, 831, 950, 541, 863, 334, 859, 799, 745, 501, 80, 784, 433, 255, 595, 128, 694, 181, 410]]
